55 53 54 45 48 51 50 52 31 32 
33 35 37 38 39 36 34 29 24 20 
25 27 15 19 16 14 12 
43 42 44 46 49 47 
75 2 7 8 10 11 9 6 4 3 5 
98 96 95 94 92 93 97 100 99 1 
86 87 76 71 70 73 77 79 80 63 
67 65 62 56 58 60 59 57 
81 78 82 83 84 85 88 89 91 90 
13 17 18 30 28 26 23 22 21 
41 40 74 72 61 64 68 66 69 
